60 31 
17 62 
15 94 
41 41 
11 94 
11 45 
51 98 
20 55 
1 59 
47 39 
34 37 
51 96 
28 26 
89 33 
65 92 
90 77 
76 7 
40 43 
54 81 
85 65 
28 96 
62 31 
46 83 
86 47 
94 85 
39 80 
75 90 
76 55 
68 17 
88 33 
62 79 
63 38 
38 3 
81 92 
36 18 
9 64 
67 72 
95 13 
7 33 
13 1 
19 52 
81 46 
42 10 
1 11 
27 90 
96 89 
21 59 
79 59 
14 13 
4 51 
